p cnf 200 1110
-101 66 0
-101 -18 0
-101 13 0
-101 7 0
-101 73 0
-101 21 0
-101 -27 0
-101 24 0
-101 44 0
-101 55 0
101 -66 18 -13 -7 -73 -21 27 -24 -44 -55 0
-102 -12 0
-102 74 0
-102 -60 0
-102 -67 0
-102 4 0
-102 -56 0
-102 -91 0
-102 -27 0
-102 -63 0
-102 54 0
102 12 -74 60 67 -4 56 91 27 63 -54 0
-103 6 0
-103 -10 0
-103 -78 0
-103 -54 0
-103 86 0
-103 -24 0
-103 -26 0
-103 -7 0
-103 62 0
-103 53 0
103 -6 10 78 54 -86 24 26 7 -62 -53 0
-104 20 0
-104 -45 0
-104 -42 0
-104 5 0
-104 -31 0
-104 -14 0
-104 -73 0
-104 -93 0
-104 92 0
-104 90 0
104 -20 45 42 -5 31 14 73 93 -92 -90 0
-105 64 0
-105 -4 0
-105 9 0
-105 -75 0
-105 -100 0
-105 -82 0
-105 81 0
-105 85 0
-105 -27 0
-105 -32 0
105 -64 4 -9 75 100 82 -81 -85 27 32 0
-106 13 0
-106 -19 0
-106 27 0
-106 86 0
-106 -93 0
-106 -72 0
-106 -53 0
-106 -95 0
-106 -59 0
-106 -70 0
106 -13 19 -27 -86 93 72 53 95 59 70 0
-107 90 0
-107 -27 0
-107 59 0
-107 -58 0
-107 73 0
-107 16 0
-107 -85 0
-107 54 0
-107 7 0
-107 -12 0
107 -90 27 -59 58 -73 -16 85 -54 -7 12 0
-108 74 0
-108 -77 0
-108 -25 0
-108 -53 0
-108 -38 0
-108 33 0
-108 65 0
-108 -76 0
-108 62 0
-108 -71 0
108 -74 77 25 53 38 -33 -65 76 -62 71 0
-109 -49 0
-109 73 0
-109 31 0
-109 90 0
-109 -66 0
-109 -53 0
-109 69 0
-109 15 0
-109 -1 0
-109 -45 0
109 49 -73 -31 -90 66 53 -69 -15 1 45 0
-110 -76 0
-110 35 0
-110 9 0
-110 37 0
-110 -14 0
-110 65 0
-110 -87 0
-110 -58 0
-110 75 0
-110 -67 0
110 76 -35 -9 -37 14 -65 87 58 -75 67 0
101 102 103 104 105 106 107 108 109 110 0
-111 4 0
-111 -95 0
-111 -5 0
-111 -83 0
-111 -77 0
-111 -59 0
-111 -65 0
-111 23 0
-111 -44 0
-111 -22 0
111 -4 95 5 83 77 59 65 -23 44 22 0
-112 15 0
-112 -21 0
-112 -65 0
-112 -26 0
-112 -14 0
-112 1 0
-112 93 0
-112 53 0
-112 85 0
-112 64 0
112 -15 21 65 26 14 -1 -93 -53 -85 -64 0
-113 22 0
-113 -12 0
-113 -97 0
-113 -40 0
-113 46 0
-113 48 0
-113 -35 0
-113 77 0
-113 -18 0
-113 72 0
113 -22 12 97 40 -46 -48 35 -77 18 -72 0
-114 -76 0
-114 -32 0
-114 80 0
-114 -72 0
-114 -98 0
-114 83 0
-114 41 0
-114 -88 0
-114 -93 0
-114 58 0
114 76 32 -80 72 98 -83 -41 88 93 -58 0
-115 63 0
-115 13 0
-115 71 0
-115 -44 0
-115 -55 0
-115 54 0
-115 50 0
-115 -27 0
-115 -48 0
-115 -80 0
115 -63 -13 -71 44 55 -54 -50 27 48 80 0
-116 10 0
-116 -27 0
-116 94 0
-116 -34 0
-116 -28 0
-116 -67 0
-116 52 0
-116 53 0
-116 15 0
-116 14 0
116 -10 27 -94 34 28 67 -52 -53 -15 -14 0
-117 57 0
-117 40 0
-117 54 0
-117 -99 0
-117 66 0
-117 -16 0
-117 76 0
-117 -24 0
-117 -74 0
-117 -29 0
117 -57 -40 -54 99 -66 16 -76 24 74 29 0
-118 26 0
-118 -38 0
-118 4 0
-118 -79 0
-118 35 0
-118 -15 0
-118 -60 0
-118 33 0
-118 31 0
-118 -3 0
118 -26 38 -4 79 -35 15 60 -33 -31 3 0
-119 -33 0
-119 -61 0
-119 -67 0
-119 -3 0
-119 12 0
-119 -34 0
-119 -98 0
-119 -92 0
-119 -75 0
-119 24 0
119 33 61 67 3 -12 34 98 92 75 -24 0
-120 -36 0
-120 92 0
-120 63 0
-120 19 0
-120 9 0
-120 -67 0
-120 -26 0
-120 51 0
-120 93 0
-120 87 0
120 36 -92 -63 -19 -9 67 26 -51 -93 -87 0
111 112 113 114 115 116 117 118 119 120 0
-121 11 0
-121 -40 0
-121 94 0
-121 -50 0
-121 -71 0
-121 4 0
-121 -83 0
-121 -38 0
-121 53 0
-121 -21 0
121 -11 40 -94 50 71 -4 83 38 -53 21 0
-122 97 0
-122 -38 0
-122 -36 0
-122 13 0
-122 87 0
-122 76 0
-122 19 0
-122 -15 0
-122 -58 0
-122 44 0
122 -97 38 36 -13 -87 -76 -19 15 58 -44 0
-123 73 0
-123 -19 0
-123 -96 0
-123 -68 0
-123 60 0
-123 -30 0
-123 88 0
-123 -36 0
-123 -85 0
-123 63 0
123 -73 19 96 68 -60 30 -88 36 85 -63 0
-124 79 0
-124 -91 0
-124 49 0
-124 -99 0
-124 30 0
-124 75 0
-124 -71 0
-124 -69 0
-124 -45 0
-124 53 0
124 -79 91 -49 99 -30 -75 71 69 45 -53 0
-125 -71 0
-125 -2 0
-125 13 0
-125 -58 0
-125 -27 0
-125 74 0
-125 9 0
-125 -23 0
-125 -21 0
-125 -93 0
125 71 2 -13 58 27 -74 -9 23 21 93 0
-126 -24 0
-126 9 0
-126 -63 0
-126 10 0
-126 90 0
-126 13 0
-126 42 0
-126 95 0
-126 -26 0
-126 -21 0
126 24 -9 63 -10 -90 -13 -42 -95 26 21 0
-127 27 0
-127 -18 0
-127 -6 0
-127 76 0
-127 -21 0
-127 32 0
-127 38 0
-127 94 0
-127 -8 0
-127 -42 0
127 -27 18 6 -76 21 -32 -38 -94 8 42 0
-128 94 0
-128 92 0
-128 34 0
-128 19 0
-128 49 0
-128 -28 0
-128 9 0
-128 -23 0
-128 -12 0
-128 18 0
128 -94 -92 -34 -19 -49 28 -9 23 12 -18 0
-129 -94 0
-129 74 0
-129 43 0
-129 40 0
-129 68 0
-129 25 0
-129 75 0
-129 -83 0
-129 10 0
-129 71 0
129 94 -74 -43 -40 -68 -25 -75 83 -10 -71 0
-130 52 0
-130 -79 0
-130 -40 0
-130 -36 0
-130 -85 0
-130 78 0
-130 -99 0
-130 69 0
-130 -14 0
-130 89 0
130 -52 79 40 36 85 -78 99 -69 14 -89 0
121 122 123 124 125 126 127 128 129 130 0
-131 71 0
-131 65 0
-131 97 0
-131 98 0
-131 57 0
-131 -95 0
-131 74 0
-131 85 0
-131 -46 0
-131 -44 0
131 -71 -65 -97 -98 -57 95 -74 -85 46 44 0
-132 -76 0
-132 -8 0
-132 -59 0
-132 83 0
-132 36 0
-132 77 0
-132 -17 0
-132 -9 0
-132 69 0
-132 -98 0
132 76 8 59 -83 -36 -77 17 9 -69 98 0
-133 96 0
-133 -94 0
-133 -17 0
-133 -70 0
-133 31 0
-133 -57 0
-133 51 0
-133 -44 0
-133 1 0
-133 92 0
133 -96 94 17 70 -31 57 -51 44 -1 -92 0
-134 -18 0
-134 4 0
-134 54 0
-134 -14 0
-134 24 0
-134 19 0
-134 42 0
-134 23 0
-134 27 0
-134 -67 0
134 18 -4 -54 14 -24 -19 -42 -23 -27 67 0
-135 -80 0
-135 51 0
-135 -8 0
-135 -72 0
-135 52 0
-135 -47 0
-135 -53 0
-135 -84 0
-135 37 0
-135 41 0
135 80 -51 8 72 -52 47 53 84 -37 -41 0
-136 6 0
-136 -75 0
-136 39 0
-136 51 0
-136 21 0
-136 52 0
-136 -2 0
-136 -96 0
-136 -65 0
-136 -97 0
136 -6 75 -39 -51 -21 -52 2 96 65 97 0
-137 9 0
-137 22 0
-137 47 0
-137 -58 0
-137 -63 0
-137 86 0
-137 7 0
-137 -94 0
-137 -44 0
-137 74 0
137 -9 -22 -47 58 63 -86 -7 94 44 -74 0
-138 -84 0
-138 -43 0
-138 37 0
-138 54 0
-138 -15 0
-138 10 0
-138 -51 0
-138 93 0
-138 -47 0
-138 -20 0
138 84 43 -37 -54 15 -10 51 -93 47 20 0
-139 91 0
-139 48 0
-139 -15 0
-139 14 0
-139 17 0
-139 -56 0
-139 66 0
-139 -54 0
-139 -52 0
-139 -86 0
139 -91 -48 15 -14 -17 56 -66 54 52 86 0
-140 -66 0
-140 -55 0
-140 -87 0
-140 -90 0
-140 73 0
-140 -44 0
-140 58 0
-140 -45 0
-140 39 0
-140 17 0
140 66 55 87 90 -73 44 -58 45 -39 -17 0
131 132 133 134 135 136 137 138 139 140 0
-141 -36 0
-141 -100 0
-141 -43 0
-141 -54 0
-141 39 0
-141 -56 0
-141 55 0
-141 48 0
-141 -60 0
-141 85 0
141 36 100 43 54 -39 56 -55 -48 60 -85 0
-142 -79 0
-142 92 0
-142 90 0
-142 -25 0
-142 6 0
-142 40 0
-142 -91 0
-142 46 0
-142 -50 0
-142 -20 0
142 79 -92 -90 25 -6 -40 91 -46 50 20 0
-143 -43 0
-143 -98 0
-143 62 0
-143 -6 0
-143 65 0
-143 8 0
-143 84 0
-143 71 0
-143 -53 0
-143 61 0
143 43 98 -62 6 -65 -8 -84 -71 53 -61 0
-144 -92 0
-144 99 0
-144 26 0
-144 60 0
-144 -75 0
-144 -63 0
-144 -53 0
-144 -82 0
-144 -48 0
-144 34 0
144 92 -99 -26 -60 75 63 53 82 48 -34 0
-145 -100 0
-145 -2 0
-145 -1 0
-145 -19 0
-145 -32 0
-145 48 0
-145 82 0
-145 37 0
-145 -10 0
-145 34 0
145 100 2 1 19 32 -48 -82 -37 10 -34 0
-146 56 0
-146 47 0
-146 85 0
-146 14 0
-146 91 0
-146 -43 0
-146 33 0
-146 68 0
-146 28 0
-146 -6 0
146 -56 -47 -85 -14 -91 43 -33 -68 -28 6 0
-147 -94 0
-147 -78 0
-147 -64 0
-147 42 0
-147 6 0
-147 67 0
-147 51 0
-147 50 0
-147 38 0
-147 -87 0
147 94 78 64 -42 -6 -67 -51 -50 -38 87 0
-148 84 0
-148 -14 0
-148 -65 0
-148 -33 0
-148 -55 0
-148 -27 0
-148 99 0
-148 -11 0
-148 30 0
-148 86 0
148 -84 14 65 33 55 27 -99 11 -30 -86 0
-149 -47 0
-149 -16 0
-149 -74 0
-149 50 0
-149 -17 0
-149 44 0
-149 -40 0
-149 -77 0
-149 80 0
-149 -20 0
149 47 16 74 -50 17 -44 40 77 -80 20 0
-150 -41 0
-150 95 0
-150 16 0
-150 -91 0
-150 -28 0
-150 -6 0
-150 45 0
-150 -89 0
-150 7 0
-150 62 0
150 41 -95 -16 91 28 6 -45 89 -7 -62 0
141 142 143 144 145 146 147 148 149 150 0
-151 -22 0
-151 -91 0
-151 5 0
-151 93 0
-151 57 0
-151 -76 0
-151 28 0
-151 20 0
-151 12 0
-151 -94 0
151 22 91 -5 -93 -57 76 -28 -20 -12 94 0
-152 -33 0
-152 -10 0
-152 -75 0
-152 -92 0
-152 81 0
-152 58 0
-152 -52 0
-152 64 0
-152 -32 0
-152 83 0
152 33 10 75 92 -81 -58 52 -64 32 -83 0
-153 54 0
-153 36 0
-153 35 0
-153 92 0
-153 -17 0
-153 29 0
-153 -50 0
-153 84 0
-153 -22 0
-153 -31 0
153 -54 -36 -35 -92 17 -29 50 -84 22 31 0
-154 -47 0
-154 -15 0
-154 21 0
-154 18 0
-154 88 0
-154 -42 0
-154 -81 0
-154 -94 0
-154 17 0
-154 -63 0
154 47 15 -21 -18 -88 42 81 94 -17 63 0
-155 85 0
-155 7 0
-155 87 0
-155 50 0
-155 62 0
-155 25 0
-155 57 0
-155 -44 0
-155 3 0
-155 -65 0
155 -85 -7 -87 -50 -62 -25 -57 44 -3 65 0
-156 -11 0
-156 75 0
-156 -55 0
-156 -46 0
-156 5 0
-156 79 0
-156 42 0
-156 28 0
-156 -12 0
-156 67 0
156 11 -75 55 46 -5 -79 -42 -28 12 -67 0
-157 -11 0
-157 -24 0
-157 -1 0
-157 5 0
-157 -58 0
-157 -93 0
-157 36 0
-157 41 0
-157 99 0
-157 -47 0
157 11 24 1 -5 58 93 -36 -41 -99 47 0
-158 89 0
-158 62 0
-158 -93 0
-158 -72 0
-158 46 0
-158 -67 0
-158 -64 0
-158 -1 0
-158 -74 0
-158 99 0
158 -89 -62 93 72 -46 67 64 1 74 -99 0
-159 83 0
-159 -73 0
-159 2 0
-159 -21 0
-159 -66 0
-159 63 0
-159 -48 0
-159 36 0
-159 -45 0
-159 82 0
159 -83 73 -2 21 66 -63 48 -36 45 -82 0
-160 -11 0
-160 -59 0
-160 2 0
-160 47 0
-160 72 0
-160 -77 0
-160 -38 0
-160 -15 0
-160 -83 0
-160 -13 0
160 11 59 -2 -47 -72 77 38 15 83 13 0
151 152 153 154 155 156 157 158 159 160 0
-161 -7 0
-161 -58 0
-161 51 0
-161 -49 0
-161 12 0
-161 -14 0
-161 70 0
-161 4 0
-161 -20 0
-161 -23 0
161 7 58 -51 49 -12 14 -70 -4 20 23 0
-162 -12 0
-162 94 0
-162 -53 0
-162 89 0
-162 -46 0
-162 65 0
-162 97 0
-162 -21 0
-162 -8 0
-162 57 0
162 12 -94 53 -89 46 -65 -97 21 8 -57 0
-163 17 0
-163 -67 0
-163 89 0
-163 1 0
-163 50 0
-163 -30 0
-163 -10 0
-163 -61 0
-163 -72 0
-163 75 0
163 -17 67 -89 -1 -50 30 10 61 72 -75 0
-164 -35 0
-164 -26 0
-164 61 0
-164 94 0
-164 21 0
-164 96 0
-164 6 0
-164 3 0
-164 -40 0
-164 54 0
164 35 26 -61 -94 -21 -96 -6 -3 40 -54 0
-165 62 0
-165 -25 0
-165 -9 0
-165 -84 0
-165 -100 0
-165 -34 0
-165 -97 0
-165 88 0
-165 -64 0
-165 -60 0
165 -62 25 9 84 100 34 97 -88 64 60 0
-166 76 0
-166 -81 0
-166 2 0
-166 1 0
-166 11 0
-166 -63 0
-166 50 0
-166 -80 0
-166 30 0
-166 -72 0
166 -76 81 -2 -1 -11 63 -50 80 -30 72 0
-167 93 0
-167 10 0
-167 61 0
-167 3 0
-167 -74 0
-167 -45 0
-167 51 0
-167 -17 0
-167 -42 0
-167 59 0
167 -93 -10 -61 -3 74 45 -51 17 42 -59 0
-168 -61 0
-168 14 0
-168 -42 0
-168 -19 0
-168 -7 0
-168 -88 0
-168 -4 0
-168 86 0
-168 27 0
-168 -92 0
168 61 -14 42 19 7 88 4 -86 -27 92 0
-169 66 0
-169 55 0
-169 -24 0
-169 -42 0
-169 13 0
-169 -3 0
-169 -76 0
-169 25 0
-169 -51 0
-169 85 0
169 -66 -55 24 42 -13 3 76 -25 51 -85 0
-170 -54 0
-170 8 0
-170 13 0
-170 -23 0
-170 72 0
-170 -50 0
-170 33 0
-170 -39 0
-170 -92 0
-170 46 0
170 54 -8 -13 23 -72 50 -33 39 92 -46 0
161 162 163 164 165 166 167 168 169 170 0
-171 -68 0
-171 75 0
-171 45 0
-171 22 0
-171 80 0
-171 -94 0
-171 44 0
-171 -31 0
-171 87 0
-171 -51 0
171 68 -75 -45 -22 -80 94 -44 31 -87 51 0
-172 31 0
-172 78 0
-172 73 0
-172 8 0
-172 -2 0
-172 -99 0
-172 97 0
-172 -68 0
-172 18 0
-172 22 0
172 -31 -78 -73 -8 2 99 -97 68 -18 -22 0
-173 -72 0
-173 34 0
-173 -67 0
-173 -86 0
-173 -5 0
-173 33 0
-173 -42 0
-173 -37 0
-173 35 0
-173 -50 0
173 72 -34 67 86 5 -33 42 37 -35 50 0
-174 35 0
-174 -34 0
-174 -18 0
-174 -71 0
-174 -83 0
-174 1 0
-174 9 0
-174 47 0
-174 -43 0
-174 -26 0
174 -35 34 18 71 83 -1 -9 -47 43 26 0
-175 -45 0
-175 -35 0
-175 79 0
-175 -25 0
-175 -4 0
-175 -98 0
-175 -88 0
-175 -44 0
-175 -30 0
-175 77 0
175 45 35 -79 25 4 98 88 44 30 -77 0
-176 73 0
-176 4 0
-176 -15 0
-176 -47 0
-176 56 0
-176 -94 0
-176 18 0
-176 -13 0
-176 -14 0
-176 -63 0
176 -73 -4 15 47 -56 94 -18 13 14 63 0
-177 -95 0
-177 -19 0
-177 83 0
-177 31 0
-177 -69 0
-177 5 0
-177 -98 0
-177 62 0
-177 -29 0
-177 67 0
177 95 19 -83 -31 69 -5 98 -62 29 -67 0
-178 -11 0
-178 14 0
-178 37 0
-178 -53 0
-178 -91 0
-178 42 0
-178 -25 0
-178 74 0
-178 -61 0
-178 73 0
178 11 -14 -37 53 91 -42 25 -74 61 -73 0
-179 -36 0
-179 93 0
-179 -72 0
-179 71 0
-179 -16 0
-179 -39 0
-179 18 0
-179 10 0
-179 69 0
-179 41 0
179 36 -93 72 -71 16 39 -18 -10 -69 -41 0
-180 74 0
-180 -46 0
-180 -45 0
-180 -8 0
-180 -50 0
-180 -85 0
-180 -95 0
-180 23 0
-180 65 0
-180 75 0
180 -74 46 45 8 50 85 95 -23 -65 -75 0
171 172 173 174 175 176 177 178 179 180 0
-181 -61 0
-181 95 0
-181 -31 0
-181 -62 0
-181 -21 0
-181 -99 0
-181 -65 0
-181 11 0
-181 -26 0
-181 70 0
181 61 -95 31 62 21 99 65 -11 26 -70 0
-182 3 0
-182 6 0
-182 59 0
-182 75 0
-182 -11 0
-182 -7 0
-182 -43 0
-182 -71 0
-182 -1 0
-182 -24 0
182 -3 -6 -59 -75 11 7 43 71 1 24 0
-183 -88 0
-183 16 0
-183 -1 0
-183 -42 0
-183 31 0
-183 -9 0
-183 -56 0
-183 -81 0
-183 -85 0
-183 -20 0
183 88 -16 1 42 -31 9 56 81 85 20 0
-184 -79 0
-184 43 0
-184 -57 0
-184 69 0
-184 58 0
-184 14 0
-184 23 0
-184 77 0
-184 -6 0
-184 81 0
184 79 -43 57 -69 -58 -14 -23 -77 6 -81 0
-185 -38 0
-185 -33 0
-185 51 0
-185 50 0
-185 87 0
-185 -14 0
-185 -34 0
-185 42 0
-185 71 0
-185 -15 0
185 38 33 -51 -50 -87 14 34 -42 -71 15 0
-186 -47 0
-186 10 0
-186 63 0
-186 -34 0
-186 80 0
-186 40 0
-186 -31 0
-186 -41 0
-186 -24 0
-186 -56 0
186 47 -10 -63 34 -80 -40 31 41 24 56 0
-187 30 0
-187 26 0
-187 60 0
-187 -10 0
-187 -92 0
-187 59 0
-187 -13 0
-187 54 0
-187 20 0
-187 3 0
187 -30 -26 -60 10 92 -59 13 -54 -20 -3 0
-188 39 0
-188 -43 0
-188 93 0
-188 2 0
-188 63 0
-188 3 0
-188 96 0
-188 24 0
-188 -57 0
-188 1 0
188 -39 43 -93 -2 -63 -3 -96 -24 57 -1 0
-189 88 0
-189 -50 0
-189 78 0
-189 37 0
-189 -65 0
-189 -43 0
-189 -39 0
-189 -51 0
-189 -77 0
-189 -64 0
189 -88 50 -78 -37 65 43 39 51 77 64 0
-190 -96 0
-190 -47 0
-190 29 0
-190 64 0
-190 -13 0
-190 -31 0
-190 -100 0
-190 -36 0
-190 88 0
-190 -72 0
190 96 47 -29 -64 13 31 100 36 -88 72 0
181 182 183 184 185 186 187 188 189 190 0
-191 -94 0
-191 54 0
-191 -67 0
-191 -81 0
-191 57 0
-191 31 0
-191 -24 0
-191 48 0
-191 97 0
-191 49 0
191 94 -54 67 81 -57 -31 24 -48 -97 -49 0
-192 70 0
-192 64 0
-192 50 0
-192 -27 0
-192 8 0
-192 -37 0
-192 -99 0
-192 62 0
-192 -57 0
-192 -92 0
192 -70 -64 -50 27 -8 37 99 -62 57 92 0
-193 -4 0
-193 -52 0
-193 -78 0
-193 -71 0
-193 21 0
-193 -84 0
-193 -51 0
-193 99 0
-193 92 0
-193 -2 0
193 4 52 78 71 -21 84 51 -99 -92 2 0
-194 22 0
-194 1 0
-194 75 0
-194 11 0
-194 54 0
-194 -25 0
-194 47 0
-194 15 0
-194 -13 0
-194 62 0
194 -22 -1 -75 -11 -54 25 -47 -15 13 -62 0
-195 -29 0
-195 -42 0
-195 -65 0
-195 87 0
-195 -52 0
-195 -95 0
-195 30 0
-195 -66 0
-195 97 0
-195 -71 0
195 29 42 65 -87 52 95 -30 66 -97 71 0
-196 -22 0
-196 -17 0
-196 -45 0
-196 14 0
-196 -11 0
-196 59 0
-196 18 0
-196 7 0
-196 32 0
-196 -91 0
196 22 17 45 -14 11 -59 -18 -7 -32 91 0
-197 -62 0
-197 24 0
-197 88 0
-197 -5 0
-197 -50 0
-197 -68 0
-197 45 0
-197 -26 0
-197 23 0
-197 -3 0
197 62 -24 -88 5 50 68 -45 26 -23 3 0
-198 50 0
-198 -48 0
-198 -32 0
-198 65 0
-198 36 0
-198 95 0
-198 -5 0
-198 -75 0
-198 -64 0
-198 33 0
198 -50 48 32 -65 -36 -95 5 75 64 -33 0
-199 13 0
-199 27 0
-199 99 0
-199 -26 0
-199 -45 0
-199 -35 0
-199 20 0
-199 5 0
-199 -30 0
-199 42 0
199 -13 -27 -99 26 45 35 -20 -5 30 -42 0
-200 9 0
-200 88 0
-200 42 0
-200 14 0
-200 34 0
-200 19 0
-200 -31 0
-200 16 0
-200 -84 0
-200 73 0
200 -9 -88 -42 -14 -34 -19 31 -16 84 -73 0
191 192 193 194 195 196 197 198 199 200 0
